proyfinal/src/viki/013/experimentInOfficeAgust.take6.output/d0e88d3f-3a34-460c-8760-0fe50a808236.als.dat
{'cnf.clauses': '118081',
 'cnf.totvars': '69608',
 'conflict literals': '10',
 'conflicts': '8',
 'decisions': '5336',
 'memused.mb': '16.69',
 'outcome': 'UNSAT',
 'propagations': '30336',
 'restarts': '1',
 'solver.msecs': 34,
 'task.msecs': 89}
