proyfinal/src/viki/013/experimentInOfficeAgust.take6.output/d0e88d3f-3a34-460c-8760-0fe50a808236.als.out
Reading from standard input... Use '--help' for help.
============================[ Problem Statistics ]=============================
|                                                                             |
|  Number of variables:         69608                                         |
|  Number of clauses:          118081                                         |
|  Parse time:                   0.03 s                                       |
|                                                                             |
============================[ Search Statistics ]==============================
| Conflicts |          ORIGINAL         |          LEARNT          | Progress |
|           |    Vars  Clauses Literals |    Limit  Clauses Lit/Cl |          |
===============================================================================
===============================================================================
restarts              : 1
conflicts             : 8              (231 /sec)
decisions             : 5336           (0.00 % random) (153975 /sec)
propagations          : 30336          (875372 /sec)
conflict literals     : 10             (0.00 % deleted)
Memory used           : 16.69 MB
CPU time              : 0.034655 s

UNSATISFIABLE
